num_offers = 35;
num_halls = 10;
start=[21,9,48,42,10,2,45,5,34,5,38,52,5,27,82,6,92,22,24,30,29,53,49,17,60,85,81,66,12,3,40,15,15,68,12];
end=[51,25,89,57,47,41,89,35,58,67,50,71,86,100,100,22,100,59,34,50,56,100,52,26,67,93,84,97,83,24,82,79,63,92,33];
price=[2713,1302,3403,631,926,1696,4250,1530,969,1237,1286,1575,4788,845,834,1490,583,2130,469,1132,1099,3370,314,454,798,167,351,1775,6104,1884,2400,1860,2797,2206,460];
requirement=[807,622,506,589,802,404,650,827,596,889,573,225,634,788,358,519,363,394,581,713,836,275,808,572,469,755,227,366,502,902,380,893,468,470,326];
capacity=[497,554,716,242,994,651,214,733,895,955];
